(declare-fun temp175_2 () (_ BitVec 64))
(declare-fun temp175_1 () (_ BitVec 64))
(declare-fun temp175_4 () (_ BitVec 64))
(declare-fun temp175_3 () (_ BitVec 64))
(declare-fun temp175_6 () (_ BitVec 64))
(declare-fun temp175_5 () (_ BitVec 64))
(declare-fun temp175_8 () (_ BitVec 64))
(declare-fun temp175_7 () (_ BitVec 64))
(declare-fun temp175_10 () (_ BitVec 64))
(declare-fun temp175_9 () (_ BitVec 64))
(declare-fun temp175_11 () (_ BitVec 64))
(declare-fun var2298106 () (_ BitVec 64))
(declare-fun var2298114 () (_ BitVec 64))
(declare-fun temp175_12 () (_ BitVec 64))
(declare-fun var3613786 () (_ BitVec 64))
(declare-fun temp175_13 () (_ BitVec 64))
(declare-fun temp175_15 () (_ BitVec 64))
(declare-fun temp175_14 () (_ BitVec 64))
(declare-fun temp175_17 () (_ BitVec 64))
(declare-fun temp175_16 () (_ BitVec 64))
(assert (= temp175_2 #x0000000000000000))
(assert (= temp175_1 temp175_2))
(assert (= temp175_4 #x0000000000000000))
(assert (= temp175_3 temp175_4))
(assert (= temp175_6 #x0000000000000000))
(assert (= temp175_5 temp175_6))
(assert (= temp175_8 #x000000000000002b))
(assert (= temp175_7 temp175_8))
(assert (= temp175_10 #x0000000000000001))
(assert (= temp175_9 temp175_10))
(assert (= temp175_11 #x0000000000000001))
(assert (= var2298106 temp175_11))
(assert (= var2298114 var2298106))
(assert (= temp175_12 #x0000000000000000))
(assert (= var3613786 temp175_12))
(assert (= temp175_13 #x0000000000000000))
(assert (or false (= var3613786 temp175_13)))
(assert (= temp175_15 #x0000000000000000))
(assert (= temp175_14 temp175_15))
(assert (= temp175_17 #x0000000000000000))
(assert (= temp175_16 temp175_17))
(model-add temp175_2 () (_ BitVec 64) #x0000000000000000)
(model-add temp175_1 () (_ BitVec 64) #x0000000000000000)
(model-add temp175_4 () (_ BitVec 64) #x0000000000000000)
(model-add temp175_3 () (_ BitVec 64) #x0000000000000000)
(model-add temp175_6 () (_ BitVec 64) #x0000000000000000)
(model-add temp175_5 () (_ BitVec 64) #x0000000000000000)
(model-add temp175_8 () (_ BitVec 64) #x000000000000002b)
(model-add temp175_7 () (_ BitVec 64) #x000000000000002b)
(model-add temp175_10 () (_ BitVec 64) #x0000000000000001)
(model-add temp175_9 () (_ BitVec 64) #x0000000000000001)
(model-add temp175_11 () (_ BitVec 64) #x0000000000000001)
(model-add var2298106 () (_ BitVec 64) #x0000000000000001)
(model-add var2298114 () (_ BitVec 64) #x0000000000000001)
(model-add temp175_12 () (_ BitVec 64) #x0000000000000000)
(model-add var3613786 () (_ BitVec 64) #x0000000000000000)
(model-add temp175_13 () (_ BitVec 64) #x0000000000000000)






